sat
(:max-memory              35.94
 :memory                  19.56
 :num-allocs              41879884
 :rlimit-count            143262
 :sat-backjumps           120
 :sat-conflicts           120
 :sat-decisions           1079
 :sat-del-clause          13
 :sat-elim-clauses        10
 :sat-elim-literals       9
 :sat-minimized-lits      77
 :sat-mk-clause-2ary      12185
 :sat-mk-clause-nary      52889
 :sat-mk-var              14207
 :sat-propagations-2ary   22539
 :sat-propagations-nary   47292
 :sat-subs-resolution-dyn 5
 :sat-units               8
 :time                    0.12
 :total-time              0.16)
